Traveling Salesman Problem/TSP_generados/Aleatorio1620391493_15.tsp
NAME: Aleatorio1620391493_15.tsp
COMMENT: Randomly generated scenario
TYPE: TSP
DIMENSION: 15
EDGE_WEIGHT_TYPE: ATT
NODE_COORD_SECTION
1 29.3 24.29
2 36.9 8.91
3 42.1 8.8
4 27.93 37.37
5 33.53 0.5
6 5.85 49.21
7 25.91 30.23
8 30.27 46.19
9 26.35 10.03
10 45.2 8.28
11 48.32 3.64
12 46.8 7.42
13 34.62 14.27
14 37.21 1.82
15 35.36 0.97
