Traveling Salesman Problem/TSP_generados/Aleatorio1620391493_15.opt.tour
NAME: Aleatorio1620391493_15.opt.tour
COMMENT: Optimal solution for Aleatorio1620391493_15 (150.72975802258085)
TYPE: TOUR
DIMENSION: 15
TOUR_SECTION
1 7 4 8 6 9 5 15 14 11 12 10 3 2 13
-1
EOF
